\ENCODING=ISO-8859-1
\Problem name: BLO

Minimize
 obj1:
Subject To
 c1: 0.291666666666667 x(1) + 0.166666666666667 x(2) + 0.125 x(3)
     + 0.166666666666667 x(4) + 0.125 x(5) + 0.125 x(6)  = 16
Bounds
 0.044 <= x(1) <= 0.0996
 0.0848 <= x(2) <= 0.278
 0.108 <= x(3) <= 0.2836
 0.0804 <= x(4) <= 0.2492
 0.154 <= x(5) <= 0.324
 0.092 <= x(6) <= 0.162
End
